16 5 47 53 48 3 46 23 34 29 64 2 42 22 31 
19 68 7 55 18 4 1 26 15 66 25 9 
57 
38 21 63 
67 59 50 61 44 52 33 36 73 72 
30 62 13 54 43 14 24 45 
20 37 32 74 12 27 69 35 10 71 49 56 58 75 40 70 60 28 39 41 6 51 11 17 8 65 

